35
raw_data/rcpsp/CV.xlsx cv35
Time limit set to 60 seconds
Running CP solver
/home/omastto1/General-Optimization-Solver/src/solvers/rcpsp.py:31(stream:49:6): Warning: Cumulative expression 'pulse': height is zero, expression is zero everywhere.
                                                                                            VarCumulAtom_100 = pulse("0", 0)
/home/omastto1/General-Optimization-Solver/src/solvers/rcpsp.py:31(stream:49:476): Warning: Cumulative expression 'pulse': height is zero, expression is zero everywhere.
                                                                                              VarCumulAtom_130 = pulse("30", 0)
/home/omastto1/General-Optimization-Solver/src/solvers/rcpsp.py:31(stream:50:6): Warning: Cumulative expression 'pulse': height is zero, expression is zero everywhere.
                                                                                            VarCumulAtom_134 = pulse("0", 0)
/home/omastto1/General-Optimization-Solver/src/solvers/rcpsp.py:31(stream:50:479): Warning: Cumulative expression 'pulse': height is zero, expression is zero everywhere.
                                                                                              VarCumulAtom_164 = pulse("30", 0)
 ! --------------------------------------------------- CP Optimizer 20.1.0.0 --
 ! Minimization problem - 32 variables, 102 constraints
 ! TimeLimit            = 60
 ! Workers              = 14
 ! LogVerbosity         = Terse
 ! Initial process time : 0.01s (0.01s extraction + 0.00s propagation)
 !  . Log search space  : 173.5 (before), 173.5 (after)
 !  . Memory usage      : 616.3 kB (before), 616.3 kB (after)
 ! Using parallel search with 14 workers.
 ! ----------------------------------------------------------------------------
 !          Best Branches  Non-fixed    W       Branch decision
                        0         32                 -
 + New bound is 27
 ! Using iterative diving.
 ! Using temporal relaxation.
 *            57       65  1.03s        1      (gap is 52.63%)
 *            53      180  1.03s        1      (gap is 49.06%)
              53     3100          3    1            -
 + New bound is 48 (gap is 9.43%)
 ! Using failure-directed search.
 *            52     5441  1.03s        2      (gap is 7.69%)
 *            51     9056  1.03s        4      (gap is 5.88%)
              51    15548         13    1   F    31 <= startOf(28)
 + New bound is 49 (gap is 3.92%)
 ! ----------------------------------------------------------------------------
 ! Search terminated by limit, 4 solutions found.
 ! Best objective         : 51 (gap is 3.92%)
 ! Best bound             : 49
 ! ----------------------------------------------------------------------------
 ! Number of branches     : 9827366
 ! Number of fails        : 2770829
 ! Total memory usage     : 10.4 MB (10.3 MB CP Optimizer + 0.1 MB Concert)
 ! Time spent in solve    : 60.07s (60.06s engine + 0.01s extraction)
 ! Search speed (br. / s) : 163625.8
 ! ----------------------------------------------------------------------------
(49,)
(0.0392157,)
(51,)
Objective value: 51
Solution is 2.0 % worse than the lower bound.
Feasible solution found
